webassembly/ejemplos_dzn/folder15_json_33.dzn
TERM = { '.', 's(2)', 's(5)', 's(4)', 's(12)', 's(9)', 'local_0', 'local_1', 's(8)', 's(6)', 's(1)', 's(0)', 's(7)', 's(3)', 's(10)', 's(11)'};
null = '.';
s = 15;
n = 10;
ndeps = 6;
max_registers_sz = 5;
NR = 2;
registers = [|'local_0', 's(8)', |'local_1', 's(0)'|];
dependencies = [|'i32.load16_u_1', 'call[function_index(0)]_5', |'call[function_index(0)]_5', 'i32.load16_u_6', |'call[function_index(0)]_5', 'i32.load8_u_7', |'call[function_index(0)]_5', 'i32.load8_u_10', |'call[function_index(0)]_5', 'i32.load16_u_11', |'call[function_index(0)]_5', 'i32.load16_s_12'|];
GET_ENUM = { GET1, GET2, GET3, GET4, GET5, GET6, GET7};
SET_ENUM = { SET1, SET2, SET3, SET4, SET5, SET6, SET7};
TEE_ENUM = { TEE1, TEE2, TEE3, TEE4, TEE5, TEE6, TEE7};
N = 11;
OP = { 'i32.const_0', 'i32.const_1', 'i32.const_2', 'call[function_index(0)]_5', 'i32.load16_u_1', 'i32.load16_u_6', 'i32.load8_u_7', 'i32.const_3', 'i32.load8_u_10', 'i32.load16_u_11', 'i32.load16_s_12' };
in_ops = [0, 0, 0, 2, 1, 1, 1, 0, 1, 1, 1 ];
out_ops = [1, 1, 1, 3, 1, 1, 1, 1, 1, 1, 1 ];
in1 = ['.', '.', '.', 's(11)', 'local_0', 's(3)', 's(4)', '.', 's(12)', 's(6)', 's(7)' ];
in2 = ['.', '.', '.', 's(0)', '.', '.', '.', '.', '.', '.', '.' ];
in3 = ['.', '.', '.', '.', '.', '.', '.', '.', '.', '.', '.' ];
out1 = ['s(9)', 's(10)', 's(11)', 's(3)', 's(0)', 's(4)', 's(5)', 's(12)', 's(6)', 's(7)', 's(8)' ];
out2 = ['.', '.', '.', 's(2)', '.', '.', '.', '.', '.', '.', '.' ];
out3 = ['.', '.', '.', 's(1)', '.', '.', '.', '.', '.', '.', '.' ];
comm = [false, false, false, false, false, false, false, false, false, false, false ];
gas = [1, 1, 1, 1, 1, 1, 1, 1, 1, 1, 1 ];
sz = [1, 1, 1, 1, 1, 1, 1, 1, 1, 1, 1 ];
stor = [false, false, false, true, false, false, false, false, false, false, false ];
lb = [ 1, 1, 1, 1, 1, 1, 1, 1, 1, 1, 1 ];
ub = [ 15, 15, 15, 15, 15, 15, 15, 15, 15, 15, 15 ];
startstack = [ null, null, null, null, null, null, null, null, null, null ];
endstack = [ 's(9)', 's(10)', 's(5)', 's(2)', 's(1)', null, null, null, null, null ];
